NAME          DCAP_2_4_3_500_SS215
ROWS
 N  OBJ
 L  CON1
 L  CON2
 L  CON3
 L  CON4
 L  CON5
 L  CON6
 L  CON7
 L  CON8
 L  CON9
 L  CON10
 L  CON11
 L  CON12
 E  CON13
 E  CON14
 E  CON15
 E  CON16
 E  CON17
 E  CON18
 E  CON19
 E  CON20
 E  CON21
 E  CON22
 E  CON23
 E  CON24
COLUMNS
    x[1,1]    OBJ       6.180167      CON1      1.000000    
    x[1,1]    CON7      -1.000000     CON8      -1.000000   
    x[1,1]    CON9      -1.000000   
    x[1,2]    OBJ       6.563535      CON2      1.000000    
    x[1,2]    CON8      -1.000000     CON9      -1.000000   
    x[1,3]    OBJ       7.443064      CON3      1.000000    
    x[1,3]    CON9      -1.000000   
    x[2,1]    OBJ       6.732585      CON4      1.000000    
    x[2,1]    CON10     -1.000000     CON11     -1.000000   
    x[2,1]    CON12     -1.000000   
    x[2,2]    OBJ       5.039546      CON5      1.000000    
    x[2,2]    CON11     -1.000000     CON12     -1.000000   
    x[2,3]    OBJ       6.054841      CON6      1.000000    
    x[2,3]    CON12     -1.000000   
    MARKER    'MARKER'                'INTORG'
    u[1,1]    OBJ       48.076654     CON1      -1.000000   
    u[1,2]    OBJ       20.066487     CON2      -1.000000   
    u[1,3]    OBJ       32.230043     CON3      -1.000000   
    u[2,1]    OBJ       49.996186     CON4      -1.000000   
    u[2,2]    OBJ       49.466655     CON5      -1.000000   
    u[2,3]    OBJ       27.484319     CON6      -1.000000   
    y[1,1,1]  OBJ       9.838480      CON7      0.580304    
    y[1,1,1]  CON13     1.000000    
    y[1,1,2]  OBJ       9.103840      CON8      1.111562    
    y[1,1,2]  CON14     1.000000    
    y[1,1,3]  OBJ       5.663289      CON9      1.007609    
    y[1,1,3]  CON15     1.000000    
    y[1,2,1]  OBJ       5.412771      CON7      1.452268    
    y[1,2,1]  CON16     1.000000    
    y[1,2,2]  OBJ       5.225150      CON8      1.123263    
    y[1,2,2]  CON17     1.000000    
    y[1,2,3]  OBJ       7.098881      CON9      0.862255    
    y[1,2,3]  CON18     1.000000    
    y[1,3,1]  OBJ       8.014425      CON7      1.341102    
    y[1,3,1]  CON19     1.000000    
    y[1,3,2]  OBJ       8.001779      CON8      1.480644    
    y[1,3,2]  CON20     1.000000    
    y[1,3,3]  OBJ       5.452673      CON9      0.629100    
    y[1,3,3]  CON21     1.000000    
    y[1,4,1]  OBJ       8.034968      CON7      0.595895    
    y[1,4,1]  CON22     1.000000    
    y[1,4,2]  OBJ       6.541043      CON8      0.947393    
    y[1,4,2]  CON23     1.000000    
    y[1,4,3]  OBJ       7.640831      CON9      0.581591    
    y[1,4,3]  CON24     1.000000    
    y[2,1,1]  OBJ       7.953324      CON10     0.580304    
    y[2,1,1]  CON13     1.000000    
    y[2,1,2]  OBJ       7.296620      CON11     1.111562    
    y[2,1,2]  CON14     1.000000    
    y[2,1,3]  OBJ       8.807589      CON12     1.007609    
    y[2,1,3]  CON15     1.000000    
    y[2,2,1]  OBJ       7.142170      CON10     1.452268    
    y[2,2,1]  CON16     1.000000    
    y[2,2,2]  OBJ       8.785009      CON11     1.123263    
    y[2,2,2]  CON17     1.000000    
    y[2,2,3]  OBJ       9.294001      CON12     0.862255    
    y[2,2,3]  CON18     1.000000    
    y[2,3,1]  OBJ       9.325553      CON10     1.341102    
    y[2,3,1]  CON19     1.000000    
    y[2,3,2]  OBJ       6.503644      CON11     1.480644    
    y[2,3,2]  CON20     1.000000    
    y[2,3,3]  OBJ       8.258256      CON12     0.629100    
    y[2,3,3]  CON21     1.000000    
    y[2,4,1]  OBJ       7.859970      CON10     0.595895    
    y[2,4,1]  CON22     1.000000    
    y[2,4,2]  OBJ       6.458798      CON11     0.947393    
    y[2,4,2]  CON23     1.000000    
    y[2,4,3]  OBJ       6.440477      CON12     0.581591    
    y[2,4,3]  CON24     1.000000    
    z[1,1]    OBJ       965.934268    CON13     1.000000    
    z[1,2]    OBJ       838.515221    CON14     1.000000    
    z[1,3]    OBJ       858.564717    CON15     1.000000    
    z[2,1]    OBJ       711.692037    CON16     1.000000    
    z[2,2]    OBJ       908.742040    CON17     1.000000    
    z[2,3]    OBJ       657.258738    CON18     1.000000    
    z[3,1]    OBJ       650.485137    CON19     1.000000    
    z[3,2]    OBJ       910.396995    CON20     1.000000    
    z[3,3]    OBJ       560.200612    CON21     1.000000    
    z[4,1]    OBJ       907.875364    CON22     1.000000    
    z[4,2]    OBJ       854.725726    CON23     1.000000    
    z[4,3]    OBJ       528.955609    CON24     1.000000    
    MARKER    'MARKER'                 'INTEND'
RHS
    RHS       CON1      -0.000000     CON2      -0.000000   
    RHS       CON3      -0.000000     CON4      -0.000000   
    RHS       CON5      -0.000000     CON6      -0.000000   
    RHS       CON7      -0.000000     CON8      -0.000000   
    RHS       CON9      -0.000000     CON10     -0.000000   
    RHS       CON11     -0.000000     CON12     -0.000000   
    RHS       CON13     1.000000      CON14     1.000000    
    RHS       CON15     1.000000      CON16     1.000000    
    RHS       CON17     1.000000      CON18     1.000000    
    RHS       CON19     1.000000      CON20     1.000000    
    RHS       CON21     1.000000      CON22     1.000000    
    RHS       CON23     1.000000      CON24     1.000000    
BOUNDS
 BV BOUND     u[1,1]  
 BV BOUND     u[1,2]  
 BV BOUND     u[1,3]  
 BV BOUND     u[2,1]  
 BV BOUND     u[2,2]  
 BV BOUND     u[2,3]  
 BV BOUND     y[1,1,1]
 BV BOUND     y[1,1,2]
 BV BOUND     y[1,1,3]
 BV BOUND     y[1,2,1]
 BV BOUND     y[1,2,2]
 BV BOUND     y[1,2,3]
 BV BOUND     y[1,3,1]
 BV BOUND     y[1,3,2]
 BV BOUND     y[1,3,3]
 BV BOUND     y[1,4,1]
 BV BOUND     y[1,4,2]
 BV BOUND     y[1,4,3]
 BV BOUND     y[2,1,1]
 BV BOUND     y[2,1,2]
 BV BOUND     y[2,1,3]
 BV BOUND     y[2,2,1]
 BV BOUND     y[2,2,2]
 BV BOUND     y[2,2,3]
 BV BOUND     y[2,3,1]
 BV BOUND     y[2,3,2]
 BV BOUND     y[2,3,3]
 BV BOUND     y[2,4,1]
 BV BOUND     y[2,4,2]
 BV BOUND     y[2,4,3]
 BV BOUND     z[1,1]  
 BV BOUND     z[1,2]  
 BV BOUND     z[1,3]  
 BV BOUND     z[2,1]  
 BV BOUND     z[2,2]  
 BV BOUND     z[2,3]  
 BV BOUND     z[3,1]  
 BV BOUND     z[3,2]  
 BV BOUND     z[3,3]  
 BV BOUND     z[4,1]  
 BV BOUND     z[4,2]  
 BV BOUND     z[4,3]  
ENDATA
